
<<< setup

Version identifier: 22.1.1.0 | 2022-11-27 | 9160aff4d
Tried aggregator 1 time.
LP Presolve eliminated 84 rows and 60 columns.
Reduced LP has 1 rows, 9 columns, and 9 nonzeros.
Presolve time = 0.00 sec. (0.03 ticks)

Iteration log . . .
Iteration:     1   Dual objective     =           835.963965
main returns 0

<<< main


<<< done

